Gurobi Optimizer version 9.1.2 build v9.1.2rc0 (linux64)
Thread count: 36 physical cores, 72 logical processors, using up to 32 threads
Optimize a model with 12 rows, 57 columns and 590 nonzeros
Model fingerprint: 0xf32eec78
Model has 47 quadratic constraints
Coefficient statistics:
  Matrix range     [2e-05, 3e+00]
  QMatrix range    [1e+00, 1e+00]
  QLMatrix range   [1e+00, 1e+00]
  Objective range  [8e-03, 7e-01]
  Bounds range     [1e+00, 1e+00]
  RHS range        [1e+00, 1e+00]
Presolve removed 9 rows and 0 columns

Continuous model is non-convex -- solving as a MIP.

Presolve removed 9 rows and 0 columns
Presolve time: 0.00s
Presolved: 189 rows, 57 columns, 443 nonzeros
Presolved model has 47 bilinear constraint(s)
Variable types: 57 continuous, 0 integer (0 binary)

Root relaxation: objective -1.743721e+00, 44 iterations, 0.00 seconds

    Nodes    |    Current Node    |     Objective Bounds      |     Work
 Expl Unexpl |  Obj  Depth IntInf | Incumbent    BestBd   Gap | It/Node Time

     0     0   -1.74372    0   38          -   -1.74372      -     -    0s
H    0     0                       0.6147548   -1.74372   384%     -    0s
     0     0   -1.64739    0    1    0.61475   -1.64739   368%     -    0s
H    0     0                      -1.6450460   -1.64739  0.14%     -    0s
     0     0     cutoff    0        -1.64505   -1.64505  0.00%     -    0s

Cutting planes:
  RLT: 25
  BQP: 3

Explored 1 nodes (76 simplex iterations) in 0.01 seconds
Thread count was 32 (of 72 available processors)

Solution count 2: -1.64505 0.614755 
No other solutions better than -1.64505

Optimal solution found (tolerance 1.00e-04)
Best objective -1.645045978473e+00, best bound -1.645045978473e+00, gap 0.0000%

User-callback calls 78, time in user-callback 0.00 sec
Gurobi Optimizer version 9.1.2 build v9.1.2rc0 (linux64)
Thread count: 36 physical cores, 72 logical processors, using up to 32 threads
Optimize a model with 60 rows, 300 columns and 15500 nonzeros
Model fingerprint: 0x9466c58e
Model has 250 quadratic constraints
Coefficient statistics:
  Matrix range     [1e-06, 4e+00]
  QMatrix range    [1e+00, 1e+00]
  QLMatrix range   [1e+00, 1e+00]
  Objective range  [2e-04, 1e+00]
  Bounds range     [1e+00, 1e+00]
  RHS range        [1e+00, 1e+00]
Presolve removed 10 rows and 0 columns

Continuous model is non-convex -- solving as a MIP.

Presolve removed 10 rows and 0 columns
Presolve time: 0.01s
Presolved: 1050 rows, 300 columns, 14461 nonzeros
Presolved model has 250 bilinear constraint(s)
Variable types: 300 continuous, 0 integer (0 binary)

Root relaxation: objective -2.557129e+01, 379 iterations, 0.05 seconds

    Nodes    |    Current Node    |     Objective Bounds      |     Work
 Expl Unexpl |  Obj  Depth IntInf | Incumbent    BestBd   Gap | It/Node Time

     0     0  -25.57129    0  199          -  -25.57129      -     -    0s
     0     0  -23.49582    0  196          -  -23.49582      -     -    0s
     0     0  -22.99262    0  172          -  -22.99262      -     -    0s
     0     0  -22.99036    0  172          -  -22.99036      -     -    0s
     0     0  -22.95641    0  127          -  -22.95641      -     -    0s
     0     0  -22.95602    0  127          -  -22.95602      -     -    0s
     0     0  -22.95602    0  127          -  -22.95602      -     -    0s
H    0     0                     -19.5278374  -22.95602  17.6%     -    0s
     0     2  -22.95602    0  127  -19.52784  -22.95602  17.6%     -    0s
* 2256  1725              46     -19.5278548  -21.73188  11.3%  54.1    2s
* 2257  1725              46     -19.5278560  -21.73188  11.3%  54.0    2s
* 2258  1725              45     -19.5278590  -21.73188  11.3%  54.0    2s
* 2260  1725              45     -19.5278634  -21.73188  11.3%  54.0    2s
* 2346  1878             130     -19.6332177  -21.73188  10.7%  53.3    2s
* 2508  1869              67     -20.1109869  -21.73188  8.06%  51.4    2s
* 2509  1869              67     -20.1109873  -21.73188  8.06%  51.4    2s
* 2894  1797             110     -20.1862831  -21.48070  6.41%  50.6    2s
* 2895  1797             110     -20.1862833  -21.48070  6.41%  50.5    2s
* 2897  1797             110     -20.1862839  -21.48070  6.41%  50.5    2s
* 2898  1797             110     -20.1862841  -21.48070  6.41%  50.5    2s
* 2901  1797             109     -20.1862847  -21.48070  6.41%  50.4    2s
* 4671   788              53     -20.1865994  -21.48070  6.41%  59.6    4s
* 4673   744              54     -20.1866604  -21.48070  6.41%  59.6    4s
* 4678   700              55     -20.1866749  -21.48070  6.41%  59.6    4s
* 4774   642              55     -20.1866761  -21.48070  6.41%  59.7    4s
* 4776   603              53     -20.1867192  -21.48070  6.41%  59.7    4s
* 5347   697              73     -20.2235712  -21.48070  6.22%  59.5    4s
* 5484   746              82     -20.2269591  -21.48070  6.20%  59.4    4s
  5623   842  -20.22726   83    2  -20.22696  -21.48070  6.20%  59.4    5s
* 5632   842              92     -20.2271488  -21.48070  6.20%  59.3    5s
* 5634   842              93     -20.2271569  -21.48070  6.20%  59.3    5s
* 5635   842              93     -20.2271576  -21.48070  6.20%  59.3    5s
* 5637   842              92     -20.2271689  -21.48070  6.20%  59.3    5s
* 5638   842              92     -20.2271690  -21.48070  6.20%  59.3    5s
* 5799   919              91     -20.2271784  -21.48070  6.20%  59.0    5s
* 5800   919              91     -20.2271792  -21.48070  6.20%  59.0    5s
* 5898   919              68     -20.2695061  -21.48070  5.98%  58.8    5s
* 5899   919              68     -20.2695454  -21.48070  5.98%  58.8    5s
* 5996   974              67     -20.3215139  -21.48070  5.70%  58.8    5s
* 6454  1146              67     -20.4065024  -21.48070  5.26%  57.8    5s
* 6602  1183              75     -20.4087956  -21.48070  5.25%  57.6    5s
* 6603  1183              75     -20.4087960  -21.48070  5.25%  57.6    5s
* 6759  1203              67     -20.4089274  -21.48070  5.25%  57.5    5s
* 6760  1203              67     -20.4089284  -21.48070  5.25%  57.5    5s
* 8033  1382              67     -20.4354965  -21.48070  5.11%  58.9    6s
* 9572  1775              70     -20.4717720  -21.24495  3.78%  58.0    6s
* 9892  1778              83     -20.4952404  -21.21227  3.50%  57.4    6s
*12476  1730              54     -20.4953066  -20.89168  1.93%  57.4    7s
*12482  1730              55     -20.4953424  -20.89168  1.93%  57.3    7s
*13573  1948              70     -20.4955036  -20.89168  1.93%  56.3    8s
*13575  1948              71     -20.4955041  -20.89168  1.93%  56.3    8s
*13598  1948              79     -20.5071534  -20.89168  1.88%  56.2    8s
*13599  1948              79     -20.5071537  -20.89168  1.88%  56.2    8s
*13716  1948              82     -20.5096049  -20.89168  1.86%  55.9    8s
*13718  1948              83     -20.5096138  -20.89168  1.86%  55.9    8s
*14514  1857              76     -20.5140115  -20.89168  1.84%  54.4    8s
*14515  1857              76     -20.5140156  -20.89168  1.84%  54.4    8s
*14840  1825              72     -20.5458484  -20.89168  1.68%  54.0    8s
*16258  2134              95     -20.5556225  -20.68048  0.61%  52.5    8s
*16259  2134              95     -20.5556257  -20.68048  0.61%  52.5    8s
*16260  2134              94     -20.5556293  -20.68048  0.61%  52.5    8s
*16261  2134              93     -20.5556332  -20.68048  0.61%  52.5    8s
*16262  2134              92     -20.5556374  -20.68048  0.61%  52.5    8s
*16613  2134              71     -20.5700263  -20.68048  0.54%  52.0    8s
*18062  2087              92     -20.5727499  -20.65533  0.40%  50.0    9s
*18064  2087              91     -20.5727509  -20.65533  0.40%  50.0    9s
*18066  2087              91     -20.5727519  -20.65533  0.40%  49.9    9s
*19420  2317              80     -20.5728121  -20.62587  0.26%  47.5    9s
*19438  2317              75     -20.5734322  -20.62587  0.25%  47.5    9s
*19896  2317              56     -20.5740506  -20.62587  0.25%  46.6    9s
*20290  2317              83     -20.5805339  -20.62587  0.22%  45.9    9s
*20294  2317              84     -20.5805351  -20.62587  0.22%  45.9    9s
*20417  2317              74     -20.5825134  -20.62587  0.21%  45.7    9s
*21174  2377              94     -20.5825151  -20.61019  0.13%  44.5    9s
*21322  2377              85     -20.5828849  -20.61019  0.13%  44.2    9s
*21325  2377              83     -20.5828859  -20.61019  0.13%  44.2    9s
*21328  2377              84     -20.5828870  -20.61019  0.13%  44.2    9s
*21562  2377              84     -20.5845140  -20.61019  0.12%  43.8    9s
*21563  2377              84     -20.5847774  -20.61019  0.12%  43.8    9s
 22077  2209     cutoff   51       -20.58478  -20.60441  0.10%  43.0   10s
*22305  2209              95     -20.5850632  -20.60218  0.08%  42.7   10s
*22307  2209              94     -20.5850632  -20.60218  0.08%  42.7   10s
*22893  2209              91     -20.5851242  -20.60124  0.08%  41.8   10s
*22894  2209              92     -20.5851247  -20.60124  0.08%  41.8   10s
*23525  2209              98     -20.5862657  -20.60124  0.07%  40.9   10s
*23811  1903              84     -20.5863098  -20.59528  0.04%  40.5   10s
*23813  1903              85     -20.5863362  -20.59528  0.04%  40.5   10s
*23817  1903              84     -20.5863363  -20.59528  0.04%  40.5   10s
*24574  1903              75     -20.5865592  -20.59504  0.04%  39.4   10s
*30375  2085              70     -20.5865756  -20.58830  0.01%  33.0   11s

Explored 33473 nodes (1011671 simplex iterations) in 11.45 seconds
Thread count was 32 (of 72 available processors)

Solution count 10: -20.5866 -20.5866 -20.5863 ... -20.5851

Optimal solution found (tolerance 1.00e-04)
Best objective -2.058657401939e+01, best bound -2.058742640759e+01, gap 0.0041%

User-callback calls 68226, time in user-callback 0.01 sec



objective value: -20.586574019393133
objective bound: -20.587426407590332
x_opt: [0.0, 0.865886497732037, 1.0, 1.0, 0.7332202322430904, 1.0, 1.0, 1.0, 0.799074576752502, 0.0, 0.7350388277470852, 0.0, 0.0, 1.0, 1.0, 0.9262307556131784, 1.0, 1.0, 0.0, 0.0017362284854231236, 0.0, 0.945377044258772, 1.0, 1.0, 0.885506579715252, 0.0, 1.0, 0.0, 0.0, 0.6669556078675767, 0.0, 1.0, 0.6012375005313045, 1.0, 1.0, 1.0, 1.0, 0.12291942737415539, 1.0, 1.0, 0.8810647972189447, 0.0, 1.0, 9.784174999550503e-20, 9.283959858666177e-20, 1.0, 8.213054119229686e-19, 1.0, 1.1695371172282493e-19, 0.8417973284138458]
GUROBI solution time: 11.449875116348267

